DIMENSION: 12
EDGE_WEIGHT_TYPE: EXPLICIT
EDGE_WEIGHT_FORMAT: FULL_MATRIX
EDGE_WEIGHT_SECTION:
32767 50 69 24 78 47 33 43 92 42 75 63 
50 32767 96 6 66 32767 30 100 58 33 55 88 
69 96 32767 79 74 79 88 2 32767 3 29 52 
24 6 79 32767 23 76 32767 85 27 9 16 12 
78 66 74 23 32767 32767 37 14 79 18 83 8 
47 32767 79 76 32767 32767 80 9 61 12 32767 32 
33 30 88 32767 37 80 32767 32767 40 57 89 75 
43 100 2 85 14 9 32767 32767 93 32767 23 7 
92 58 32767 27 79 61 40 93 32767 65 1 32767 
42 33 3 9 18 12 57 32767 65 32767 11 11 
75 55 29 16 83 32767 89 23 1 11 32767 19 
63 88 52 12 8 32 75 7 32767 11 19 32767 
EOF